(set-logic QF_S)
(declare-fun var0 () String)
(declare-fun var1 () Int)
(declare-fun var2 () Bool)
(declare-fun var3 () String)
(declare-fun var4 () Int)
(declare-fun var5 () Bool)
(declare-fun var6 () String)
(declare-fun var7 () Int)
(declare-fun var8 () Bool)
(assert (str.contains (str.replace var0 var0 var3) (str.substr var0 var4 6)))
(assert (str.suffixof var3 var3))
(assert (str.suffixof var3 var6))
(assert (<= (str.indexof "`^;~_*(tPW" var3 var7) (str.indexof var6 var3 var7)))
(check-sat)